Ge                                   
1.00
    17.3155432896171959    0.0000000000000000    0.0000000000000000
     0.0000000000000000   17.3155432896171959    0.0000000000000000
     0.0000000000000000    0.0000000000000000   11.5436955264114651
 144
Direct
  0.0416666666666714  0.0416666666666714  0.0625000000000000
  0.2916666666666998  0.2916666666666998  0.4375000000000000
  0.2083333333333002  0.0416666666666714  0.3125000000000000
  0.1250000000000000  0.2916666666666998  0.1875000000000000
  0.0416666666666714  0.2083333333333002  0.3125000000000000
  0.2916666666666998  0.1250000000000000  0.1875000000000000
  0.2083333333333002  0.2083333333333002  0.0625000000000000
  0.1250000000000000  0.1250000000000000  0.4375000000000000
  0.3750000000000000  0.0416666666666714  0.0625000000000000
  0.6250000000000000  0.2916666666666998  0.4375000000000000
  0.5416666666666998  0.0416666666666714  0.3125000000000000
  0.4583333333333002  0.2916666666666998  0.1875000000000000
  0.3750000000000000  0.2083333333333002  0.3125000000000000
  0.6250000000000000  0.1250000000000000  0.1875000000000000
  0.5416666666666998  0.2083333333333002  0.0625000000000000
  0.4583333333333002  0.1250000000000000  0.4375000000000000
  0.7083333333333002  0.0416666666666714  0.0625000000000000
  0.9583333333333002  0.2916666666666998  0.4375000000000000
  0.8750000000000000  0.0416666666666714  0.3125000000000000
  0.7916666666666998  0.2916666666666998  0.1875000000000000
  0.7083333333333002  0.2083333333333002  0.3125000000000000
  0.9583333333333002  0.1250000000000000  0.1875000000000000
  0.8750000000000000  0.2083333333333002  0.0625000000000000
  0.7916666666666998  0.1250000000000000  0.4375000000000000
  0.0416666666666714  0.3750000000000000  0.0625000000000000
  0.2916666666666998  0.6250000000000000  0.4375000000000000
  0.2083333333333002  0.3750000000000000  0.3125000000000000
  0.1250000000000000  0.6250000000000000  0.1875000000000000
  0.0416666666666714  0.5416666666666998  0.3125000000000000
  0.2916666666666998  0.4583333333333002  0.1875000000000000
  0.2083333333333002  0.5416666666666998  0.0625000000000000
  0.1250000000000000  0.4583333333333002  0.4375000000000000
  0.3750000000000000  0.3750000000000000  0.0625000000000000
  0.6250000000000000  0.6250000000000000  0.4375000000000000
  0.5416666666666998  0.3750000000000000  0.3125000000000000
  0.4583333333333002  0.6250000000000000  0.1875000000000000
  0.3750000000000000  0.5416666666666998  0.3125000000000000
  0.6250000000000000  0.4583333333333002  0.1875000000000000
  0.5416666666666998  0.5416666666666998  0.0625000000000000
  0.4583333333333002  0.4583333333333002  0.4375000000000000
  0.7083333333333002  0.3750000000000000  0.0625000000000000
  0.9583333333333002  0.6250000000000000  0.4375000000000000
  0.8750000000000000  0.3750000000000000  0.3125000000000000
  0.7916666666666998  0.6250000000000000  0.1875000000000000
  0.7083333333333002  0.5416666666666998  0.3125000000000000
  0.9583333333333002  0.4583333333333002  0.1875000000000000
  0.8750000000000000  0.5416666666666998  0.0625000000000000
  0.7916666666666998  0.4583333333333002  0.4375000000000000
  0.0416666666666714  0.7083333333333002  0.0625000000000000
  0.2916666666666998  0.9583333333333002  0.4375000000000000
  0.2083333333333002  0.7083333333333002  0.3125000000000000
  0.1250000000000000  0.9583333333333002  0.1875000000000000
  0.0416666666666714  0.8750000000000000  0.3125000000000000
  0.2916666666666998  0.7916666666666998  0.1875000000000000
  0.2083333333333002  0.8750000000000000  0.0625000000000000
  0.1250000000000000  0.7916666666666998  0.4375000000000000
  0.3750000000000000  0.7083333333333002  0.0625000000000000
  0.6250000000000000  0.9583333333333002  0.4375000000000000
  0.5416666666666998  0.7083333333333002  0.3125000000000000
  0.4583333333333002  0.9583333333333002  0.1875000000000000
  0.3750000000000000  0.8750000000000000  0.3125000000000000
  0.6250000000000000  0.7916666666666998  0.1875000000000000
  0.5416666666666998  0.8750000000000000  0.0625000000000000
  0.4583333333333002  0.7916666666666998  0.4375000000000000
  0.7083333333333002  0.7083333333333002  0.0625000000000000
  0.9583333333333002  0.9583333333333002  0.4375000000000000
  0.8750000000000000  0.7083333333333002  0.3125000000000000
  0.7916666666666998  0.9583333333333002  0.1875000000000000
  0.7083333333333002  0.8750000000000000  0.3125000000000000
  0.9583333333333002  0.7916666666666998  0.1875000000000000
  0.8750000000000000  0.8750000000000000  0.0625000000000000
  0.7916666666666998  0.7916666666666998  0.4375000000000000
  0.0416666666666714  0.0416666666666714  0.5625000000000000
  0.2916666666666998  0.2916666666666998  0.9375000000000000
  0.2083333333333002  0.0416666666666714  0.8125000000000000
  0.1250000000000000  0.2916666666666998  0.6875000000000000
  0.0416666666666714  0.2083333333333002  0.8125000000000000
  0.2916666666666998  0.1250000000000000  0.6875000000000000
  0.2083333333333002  0.2083333333333002  0.5625000000000000
  0.1250000000000000  0.1250000000000000  0.9375000000000000
  0.3750000000000000  0.0416666666666714  0.5625000000000000
  0.6250000000000000  0.2916666666666998  0.9375000000000000
  0.5416666666666998  0.0416666666666714  0.8125000000000000
  0.4583333333333002  0.2916666666666998  0.6875000000000000
  0.3750000000000000  0.2083333333333002  0.8125000000000000
  0.6250000000000000  0.1250000000000000  0.6875000000000000
  0.5416666666666998  0.2083333333333002  0.5625000000000000
  0.4583333333333002  0.1250000000000000  0.9375000000000000
  0.7083333333333002  0.0416666666666714  0.5625000000000000
  0.9583333333333002  0.2916666666666998  0.9375000000000000
  0.8750000000000000  0.0416666666666714  0.8125000000000000
  0.7916666666666998  0.2916666666666998  0.6875000000000000
  0.7083333333333002  0.2083333333333002  0.8125000000000000
  0.9583333333333002  0.1250000000000000  0.6875000000000000
  0.8750000000000000  0.2083333333333002  0.5625000000000000
  0.7916666666666998  0.1250000000000000  0.9375000000000000
  0.0416666666666714  0.3750000000000000  0.5625000000000000
  0.2916666666666998  0.6250000000000000  0.9375000000000000
  0.2083333333333002  0.3750000000000000  0.8125000000000000
  0.1250000000000000  0.6250000000000000  0.6875000000000000
  0.0416666666666714  0.5416666666666998  0.8125000000000000
  0.2916666666666998  0.4583333333333002  0.6875000000000000
  0.2083333333333002  0.5416666666666998  0.5625000000000000
  0.1250000000000000  0.4583333333333002  0.9375000000000000
  0.3750000000000000  0.3750000000000000  0.5625000000000000
  0.6250000000000000  0.6250000000000000  0.9375000000000000
  0.5416666666666998  0.3750000000000000  0.8125000000000000
  0.4583333333333002  0.6250000000000000  0.6875000000000000
  0.3750000000000000  0.5416666666666998  0.8125000000000000
  0.6250000000000000  0.4583333333333002  0.6875000000000000
  0.5416666666666998  0.5416666666666998  0.5625000000000000
  0.4583333333333002  0.4583333333333002  0.9375000000000000
  0.7083333333333002  0.3750000000000000  0.5625000000000000
  0.9583333333333002  0.6250000000000000  0.9375000000000000
  0.8750000000000000  0.3750000000000000  0.8125000000000000
  0.7916666666666998  0.6250000000000000  0.6875000000000000
  0.7083333333333002  0.5416666666666998  0.8125000000000000
  0.9583333333333002  0.4583333333333002  0.6875000000000000
  0.8750000000000000  0.5416666666666998  0.5625000000000000
  0.7916666666666998  0.4583333333333002  0.9375000000000000
  0.0416666666666714  0.7083333333333002  0.5625000000000000
  0.2916666666666998  0.9583333333333002  0.9375000000000000
  0.2083333333333002  0.7083333333333002  0.8125000000000000
  0.1250000000000000  0.9583333333333002  0.6875000000000000
  0.0416666666666714  0.8750000000000000  0.8125000000000000
  0.2916666666666998  0.7916666666666998  0.6875000000000000
  0.2083333333333002  0.8750000000000000  0.5625000000000000
  0.1250000000000000  0.7916666666666998  0.9375000000000000
  0.3750000000000000  0.7083333333333002  0.5625000000000000
  0.6250000000000000  0.9583333333333002  0.9375000000000000
  0.5416666666666998  0.7083333333333002  0.8125000000000000
  0.4583333333333002  0.9583333333333002  0.6875000000000000
  0.3750000000000000  0.8750000000000000  0.8125000000000000
  0.6250000000000000  0.7916666666666998  0.6875000000000000
  0.5416666666666998  0.8750000000000000  0.5625000000000000
  0.4583333333333002  0.7916666666666998  0.9375000000000000
  0.7083333333333002  0.7083333333333002  0.5625000000000000
  0.9583333333333002  0.9583333333333002  0.9375000000000000
  0.8750000000000000  0.7083333333333002  0.8125000000000000
  0.7916666666666998  0.9583333333333002  0.6875000000000000
  0.7083333333333002  0.8750000000000000  0.8125000000000000
  0.9583333333333002  0.7916666666666998  0.6875000000000000
  0.8750000000000000  0.8750000000000000  0.5625000000000000
  0.7916666666666998  0.7916666666666998  0.9375000000000000
 
  0.00000000E+00  0.00000000E+00  0.00000000E+00
  0.00000000E+00  0.00000000E+00  0.00000000E+00
  0.00000000E+00  0.00000000E+00  0.00000000E+00
  0.00000000E+00  0.00000000E+00  0.00000000E+00
  0.00000000E+00  0.00000000E+00  0.00000000E+00
  0.00000000E+00  0.00000000E+00  0.00000000E+00
  0.00000000E+00  0.00000000E+00  0.00000000E+00
  0.00000000E+00  0.00000000E+00  0.00000000E+00
  0.00000000E+00  0.00000000E+00  0.00000000E+00
  0.00000000E+00  0.00000000E+00  0.00000000E+00
  0.00000000E+00  0.00000000E+00  0.00000000E+00
  0.00000000E+00  0.00000000E+00  0.00000000E+00
  0.00000000E+00  0.00000000E+00  0.00000000E+00
  0.00000000E+00  0.00000000E+00  0.00000000E+00
  0.00000000E+00  0.00000000E+00  0.00000000E+00
  0.00000000E+00  0.00000000E+00  0.00000000E+00
  0.00000000E+00  0.00000000E+00  0.00000000E+00
  0.00000000E+00  0.00000000E+00  0.00000000E+00
  0.00000000E+00  0.00000000E+00  0.00000000E+00
  0.00000000E+00  0.00000000E+00  0.00000000E+00
  0.00000000E+00  0.00000000E+00  0.00000000E+00
  0.00000000E+00  0.00000000E+00  0.00000000E+00
  0.00000000E+00  0.00000000E+00  0.00000000E+00
  0.00000000E+00  0.00000000E+00  0.00000000E+00
  0.00000000E+00  0.00000000E+00  0.00000000E+00
  0.00000000E+00  0.00000000E+00  0.00000000E+00
  0.00000000E+00  0.00000000E+00  0.00000000E+00
  0.00000000E+00  0.00000000E+00  0.00000000E+00
  0.00000000E+00  0.00000000E+00  0.00000000E+00
  0.00000000E+00  0.00000000E+00  0.00000000E+00
  0.00000000E+00  0.00000000E+00  0.00000000E+00
  0.00000000E+00  0.00000000E+00  0.00000000E+00
  0.00000000E+00  0.00000000E+00  0.00000000E+00
  0.00000000E+00  0.00000000E+00  0.00000000E+00
  0.00000000E+00  0.00000000E+00  0.00000000E+00
  0.00000000E+00  0.00000000E+00  0.00000000E+00
  0.00000000E+00  0.00000000E+00  0.00000000E+00
  0.00000000E+00  0.00000000E+00  0.00000000E+00
  0.00000000E+00  0.00000000E+00  0.00000000E+00
  0.00000000E+00  0.00000000E+00  0.00000000E+00
  0.00000000E+00  0.00000000E+00  0.00000000E+00
  0.00000000E+00  0.00000000E+00  0.00000000E+00
  0.00000000E+00  0.00000000E+00  0.00000000E+00
  0.00000000E+00  0.00000000E+00  0.00000000E+00
  0.00000000E+00  0.00000000E+00  0.00000000E+00
  0.00000000E+00  0.00000000E+00  0.00000000E+00
  0.00000000E+00  0.00000000E+00  0.00000000E+00
  0.00000000E+00  0.00000000E+00  0.00000000E+00
  0.00000000E+00  0.00000000E+00  0.00000000E+00
  0.00000000E+00  0.00000000E+00  0.00000000E+00
  0.00000000E+00  0.00000000E+00  0.00000000E+00
  0.00000000E+00  0.00000000E+00  0.00000000E+00
  0.00000000E+00  0.00000000E+00  0.00000000E+00
  0.00000000E+00  0.00000000E+00  0.00000000E+00
  0.00000000E+00  0.00000000E+00  0.00000000E+00
  0.00000000E+00  0.00000000E+00  0.00000000E+00
  0.00000000E+00  0.00000000E+00  0.00000000E+00
  0.00000000E+00  0.00000000E+00  0.00000000E+00
  0.00000000E+00  0.00000000E+00  0.00000000E+00
  0.00000000E+00  0.00000000E+00  0.00000000E+00
  0.00000000E+00  0.00000000E+00  0.00000000E+00
  0.00000000E+00  0.00000000E+00  0.00000000E+00
  0.00000000E+00  0.00000000E+00  0.00000000E+00
  0.00000000E+00  0.00000000E+00  0.00000000E+00
  0.00000000E+00  0.00000000E+00  0.00000000E+00
  0.00000000E+00  0.00000000E+00  0.00000000E+00
  0.00000000E+00  0.00000000E+00  0.00000000E+00
  0.00000000E+00  0.00000000E+00  0.00000000E+00
  0.00000000E+00  0.00000000E+00  0.00000000E+00
  0.00000000E+00  0.00000000E+00  0.00000000E+00
  0.00000000E+00  0.00000000E+00  0.00000000E+00
  0.00000000E+00  0.00000000E+00  0.00000000E+00
  0.00000000E+00  0.00000000E+00  0.00000000E+00
  0.00000000E+00  0.00000000E+00  0.00000000E+00
  0.00000000E+00  0.00000000E+00  0.00000000E+00
  0.00000000E+00  0.00000000E+00  0.00000000E+00
  0.00000000E+00  0.00000000E+00  0.00000000E+00
  0.00000000E+00  0.00000000E+00  0.00000000E+00
  0.00000000E+00  0.00000000E+00  0.00000000E+00
  0.00000000E+00  0.00000000E+00  0.00000000E+00
  0.00000000E+00  0.00000000E+00  0.00000000E+00
  0.00000000E+00  0.00000000E+00  0.00000000E+00
  0.00000000E+00  0.00000000E+00  0.00000000E+00
  0.00000000E+00  0.00000000E+00  0.00000000E+00
  0.00000000E+00  0.00000000E+00  0.00000000E+00
  0.00000000E+00  0.00000000E+00  0.00000000E+00
  0.00000000E+00  0.00000000E+00  0.00000000E+00
  0.00000000E+00  0.00000000E+00  0.00000000E+00
  0.00000000E+00  0.00000000E+00  0.00000000E+00
  0.00000000E+00  0.00000000E+00  0.00000000E+00
  0.00000000E+00  0.00000000E+00  0.00000000E+00
  0.00000000E+00  0.00000000E+00  0.00000000E+00
  0.00000000E+00  0.00000000E+00  0.00000000E+00
  0.00000000E+00  0.00000000E+00  0.00000000E+00
  0.00000000E+00  0.00000000E+00  0.00000000E+00
  0.00000000E+00  0.00000000E+00  0.00000000E+00
  0.00000000E+00  0.00000000E+00  0.00000000E+00
  0.00000000E+00  0.00000000E+00  0.00000000E+00
  0.00000000E+00  0.00000000E+00  0.00000000E+00
  0.00000000E+00  0.00000000E+00  0.00000000E+00
  0.00000000E+00  0.00000000E+00  0.00000000E+00
  0.00000000E+00  0.00000000E+00  0.00000000E+00
  0.00000000E+00  0.00000000E+00  0.00000000E+00
  0.00000000E+00  0.00000000E+00  0.00000000E+00
  0.00000000E+00  0.00000000E+00  0.00000000E+00
  0.00000000E+00  0.00000000E+00  0.00000000E+00
  0.00000000E+00  0.00000000E+00  0.00000000E+00
  0.00000000E+00  0.00000000E+00  0.00000000E+00
  0.00000000E+00  0.00000000E+00  0.00000000E+00
  0.00000000E+00  0.00000000E+00  0.00000000E+00
  0.00000000E+00  0.00000000E+00  0.00000000E+00
  0.00000000E+00  0.00000000E+00  0.00000000E+00
  0.00000000E+00  0.00000000E+00  0.00000000E+00
  0.00000000E+00  0.00000000E+00  0.00000000E+00
  0.00000000E+00  0.00000000E+00  0.00000000E+00
  0.00000000E+00  0.00000000E+00  0.00000000E+00
  0.00000000E+00  0.00000000E+00  0.00000000E+00
  0.00000000E+00  0.00000000E+00  0.00000000E+00
  0.00000000E+00  0.00000000E+00  0.00000000E+00
  0.00000000E+00  0.00000000E+00  0.00000000E+00
  0.00000000E+00  0.00000000E+00  0.00000000E+00
  0.00000000E+00  0.00000000E+00  0.00000000E+00
  0.00000000E+00  0.00000000E+00  0.00000000E+00
  0.00000000E+00  0.00000000E+00  0.00000000E+00
  0.00000000E+00  0.00000000E+00  0.00000000E+00
  0.00000000E+00  0.00000000E+00  0.00000000E+00
  0.00000000E+00  0.00000000E+00  0.00000000E+00
  0.00000000E+00  0.00000000E+00  0.00000000E+00
  0.00000000E+00  0.00000000E+00  0.00000000E+00
  0.00000000E+00  0.00000000E+00  0.00000000E+00
  0.00000000E+00  0.00000000E+00  0.00000000E+00
  0.00000000E+00  0.00000000E+00  0.00000000E+00
  0.00000000E+00  0.00000000E+00  0.00000000E+00
  0.00000000E+00  0.00000000E+00  0.00000000E+00
  0.00000000E+00  0.00000000E+00  0.00000000E+00
  0.00000000E+00  0.00000000E+00  0.00000000E+00
  0.00000000E+00  0.00000000E+00  0.00000000E+00
  0.00000000E+00  0.00000000E+00  0.00000000E+00
  0.00000000E+00  0.00000000E+00  0.00000000E+00
  0.00000000E+00  0.00000000E+00  0.00000000E+00
  0.00000000E+00  0.00000000E+00  0.00000000E+00
  0.00000000E+00  0.00000000E+00  0.00000000E+00
  0.00000000E+00  0.00000000E+00  0.00000000E+00
  0.00000000E+00  0.00000000E+00  0.00000000E+00
