From LAMMPS dump, Timestep: 0 
  1.0000000000000000
  5.658700000000e+01  0.000000000000e+00  0.000000000000e+00
  0.000000000000e+00  5.658700000000e+01  0.000000000000e+00
  0.000000000000e+00  0.000000000000e+00  3.395220000000e+02
 7000
Direct
  0.000000000000e+00  0.000000000000e+00  0.000000000000e+00
  0.000000000000e+00  5.000000000000e-02  8.333330000000e-03
  5.000000000000e-02  0.000000000000e+00  8.333330000000e-03
  5.000000000000e-02  5.000000000000e-02  0.000000000000e+00
  2.500000000000e-02  2.500000000000e-02  4.166670000000e-03
  2.500000000000e-02  7.500000000000e-02  1.250000000000e-02
  7.500000000000e-02  2.500000000000e-02  1.250000000000e-02
  7.500000000000e-02  7.500000000000e-02  4.166670000000e-03
  1.000000000000e-01  0.000000000000e+00  0.000000000000e+00
  1.000000000000e-01  5.000000000000e-02  8.333330000000e-03
  1.500000000000e-01  0.000000000000e+00  8.333330000000e-03
  1.500000000000e-01  5.000000000000e-02  0.000000000000e+00
  1.250000000000e-01  2.500000000000e-02  4.166670000000e-03
  1.250000000000e-01  7.500000000000e-02  1.250000000000e-02
  1.750000000000e-01  2.500000000000e-02  1.250000000000e-02
  1.750000000000e-01  7.500000000000e-02  4.166670000000e-03
  2.000000000000e-01  0.000000000000e+00  0.000000000000e+00
  2.000000000000e-01  5.000000000000e-02  8.333330000000e-03
  2.500000000000e-01  0.000000000000e+00  8.333330000000e-03
  2.500000000000e-01  5.000000000000e-02  0.000000000000e+00
  2.250000000000e-01  2.500000000000e-02  4.166670000000e-03
  2.250000000000e-01  7.500000000000e-02  1.250000000000e-02
  2.750000000000e-01  2.500000000000e-02  1.250000000000e-02
  2.750000000000e-01  7.500000000000e-02  4.166670000000e-03
  3.000000000000e-01  0.000000000000e+00  0.000000000000e+00
  3.000000000000e-01  5.000000000000e-02  8.333330000000e-03
  3.500000000000e-01  0.000000000000e+00  8.333330000000e-03
  3.500000000000e-01  5.000000000000e-02  0.000000000000e+00
  3.250000000000e-01  2.500000000000e-02  4.166670000000e-03
  3.250000000000e-01  7.500000000000e-02  1.250000000000e-02
  3.750000000000e-01  2.500000000000e-02  1.250000000000e-02
  3.750000000000e-01  7.500000000000e-02  4.166670000000e-03
  4.000000000000e-01  0.000000000000e+00  0.000000000000e+00
  4.000000000000e-01  5.000000000000e-02  8.333330000000e-03
  4.500000000000e-01  0.000000000000e+00  8.333330000000e-03
  4.500000000000e-01  5.000000000000e-02  0.000000000000e+00
  4.250000000000e-01  2.500000000000e-02  4.166670000000e-03
  4.250000000000e-01  7.500000000000e-02  1.250000000000e-02
  4.750000000000e-01  2.500000000000e-02  1.250000000000e-02
  4.750000000000e-01  7.500000000000e-02  4.166670000000e-03
  5.000000000000e-01  0.000000000000e+00  0.000000000000e+00
  5.000000000000e-01  5.000000000000e-02  8.333330000000e-03
  5.500000000000e-01  0.000000000000e+00  8.333330000000e-03
  5.500000000000e-01  5.000000000000e-02  0.000000000000e+00
  5.250000000000e-01  2.500000000000e-02  4.166670000000e-03
  5.250000000000e-01  7.500000000000e-02  1.250000000000e-02
  5.750000000000e-01  2.500000000000e-02  1.250000000000e-02
  5.750000000000e-01  7.500000000000e-02  4.166670000000e-03
  6.000000000000e-01  0.000000000000e+00  0.000000000000e+00
  6.000000000000e-01  5.000000000000e-02  8.333330000000e-03
  6.500000000000e-01  0.000000000000e+00  8.333330000000e-03
  6.500000000000e-01  5.000000000000e-02  0.000000000000e+00
  6.250000000000e-01  2.500000000000e-02  4.166670000000e-03
  6.250000000000e-01  7.500000000000e-02  1.250000000000e-02
  6.750000000000e-01  2.500000000000e-02  1.250000000000e-02
  6.750000000000e-01  7.500000000000e-02  4.166670000000e-03
  7.000000000000e-01  0.000000000000e+00  0.000000000000e+00
  7.000000000000e-01  5.000000000000e-02  8.333330000000e-03
  7.500000000000e-01  0.000000000000e+00  8.333330000000e-03
  7.500000000000e-01  5.000000000000e-02  0.000000000000e+00
  7.250000000000e-01  2.500000000000e-02  4.166670000000e-03
  7.250000000000e-01  7.500000000000e-02  1.250000000000e-02
  7.750000000000e-01  2.500000000000e-02  1.250000000000e-02
  7.750000000000e-01  7.500000000000e-02  4.166670000000e-03
  8.000000000000e-01  0.000000000000e+00  0.000000000000e+00
  8.000000000000e-01  5.000000000000e-02  8.333330000000e-03
  8.500000000000e-01  0.000000000000e+00  8.333330000000e-03
  8.500000000000e-01  5.000000000000e-02  0.000000000000e+00
  8.250000000000e-01  2.500000000000e-02  4.166670000000e-03
  8.250000000000e-01  7.500000000000e-02  1.250000000000e-02
  8.750000000000e-01  2.500000000000e-02  1.250000000000e-02
  8.750000000000e-01  7.500000000000e-02  4.166670000000e-03
  9.000000000000e-01  0.000000000000e+00  0.000000000000e+00
  9.000000000000e-01  5.000000000000e-02  8.333330000000e-03
  9.500000000000e-01  0.000000000000e+00  8.333330000000e-03
  9.500000000000e-01  5.000000000000e-02  0.000000000000e+00
  9.250000000000e-01  2.500000000000e-02  4.166670000000e-03
  9.250000000000e-01  7.500000000000e-02  1.250000000000e-02
  9.750000000000e-01  2.500000000000e-02  1.250000000000e-02
  9.750000000000e-01  7.500000000000e-02  4.166670000000e-03
  0.000000000000e+00  1.000000000000e-01  0.000000000000e+00
  0.000000000000e+00  1.500000000000e-01  8.333330000000e-03
  5.000000000000e-02  1.000000000000e-01  8.333330000000e-03
  5.000000000000e-02  1.500000000000e-01  0.000000000000e+00
  2.500000000000e-02  1.250000000000e-01  4.166670000000e-03
  2.500000000000e-02  1.750000000000e-01  1.250000000000e-02
  7.500000000000e-02  1.250000000000e-01  1.250000000000e-02
  7.500000000000e-02  1.750000000000e-01  4.166670000000e-03
  1.000000000000e-01  1.000000000000e-01  0.000000000000e+00
  1.000000000000e-01  1.500000000000e-01  8.333330000000e-03
  1.500000000000e-01  1.000000000000e-01  8.333330000000e-03
  1.500000000000e-01  1.500000000000e-01  0.000000000000e+00
  1.250000000000e-01  1.250000000000e-01  4.166670000000e-03
  1.250000000000e-01  1.750000000000e-01  1.250000000000e-02
  1.750000000000e-01  1.250000000000e-01  1.250000000000e-02
  1.750000000000e-01  1.750000000000e-01  4.166670000000e-03
  2.000000000000e-01  1.000000000000e-01  0.000000000000e+00
  2.000000000000e-01  1.500000000000e-01  8.333330000000e-03
  2.500000000000e-01  1.000000000000e-01  8.333330000000e-03
  2.500000000000e-01  1.500000000000e-01  0.000000000000e+00
  2.250000000000e-01  1.250000000000e-01  4.166670000000e-03
  2.250000000000e-01  1.750000000000e-01  1.250000000000e-02
  2.750000000000e-01  1.250000000000e-01  1.250000000000e-02
  2.750000000000e-01  1.750000000000e-01  4.166670000000e-03
  3.000000000000e-01  1.000000000000e-01  0.000000000000e+00
  3.000000000000e-01  1.500000000000e-01  8.333330000000e-03
  3.500000000000e-01  1.000000000000e-01  8.333330000000e-03
  3.500000000000e-01  1.500000000000e-01  0.000000000000e+00
  3.250000000000e-01  1.250000000000e-01  4.166670000000e-03
  3.250000000000e-01  1.750000000000e-01  1.250000000000e-02
  3.750000000000e-01  1.250000000000e-01  1.250000000000e-02
  3.750000000000e-01  1.750000000000e-01  4.166670000000e-03
  4.000000000000e-01  1.000000000000e-01  0.000000000000e+00
  4.000000000000e-01  1.500000000000e-01  8.333330000000e-03
  4.500000000000e-01  1.000000000000e-01  8.333330000000e-03
  4.500000000000e-01  1.500000000000e-01  0.000000000000e+00
  4.250000000000e-01  1.250000000000e-01  4.166670000000e-03
  4.250000000000e-01  1.750000000000e-01  1.250000000000e-02
  4.750000000000e-01  1.250000000000e-01  1.250000000000e-02
  4.750000000000e-01  1.750000000000e-01  4.166670000000e-03
  5.000000000000e-01  1.000000000000e-01  0.000000000000e+00
  5.000000000000e-01  1.500000000000e-01  8.333330000000e-03
  5.500000000000e-01  1.000000000000e-01  8.333330000000e-03
  5.500000000000e-01  1.500000000000e-01  0.000000000000e+00
  5.250000000000e-01  1.250000000000e-01  4.166670000000e-03
  5.250000000000e-01  1.750000000000e-01  1.250000000000e-02
  5.750000000000e-01  1.250000000000e-01  1.250000000000e-02
  5.750000000000e-01  1.750000000000e-01  4.166670000000e-03
  6.000000000000e-01  1.000000000000e-01  0.000000000000e+00
  6.000000000000e-01  1.500000000000e-01  8.333330000000e-03
  6.500000000000e-01  1.000000000000e-01  8.333330000000e-03
  6.500000000000e-01  1.500000000000e-01  0.000000000000e+00
  6.250000000000e-01  1.250000000000e-01  4.166670000000e-03
  6.250000000000e-01  1.750000000000e-01  1.250000000000e-02
  6.750000000000e-01  1.250000000000e-01  1.250000000000e-02
  6.750000000000e-01  1.750000000000e-01  4.166670000000e-03
  7.000000000000e-01  1.000000000000e-01  0.000000000000e+00
  7.000000000000e-01  1.500000000000e-01  8.333330000000e-03
  7.500000000000e-01  1.000000000000e-01  8.333330000000e-03
  7.500000000000e-01  1.500000000000e-01  0.000000000000e+00
  7.250000000000e-01  1.250000000000e-01  4.166670000000e-03
  7.250000000000e-01  1.750000000000e-01  1.250000000000e-02
  7.750000000000e-01  1.250000000000e-01  1.250000000000e-02
  7.750000000000e-01  1.750000000000e-01  4.166670000000e-03
  8.000000000000e-01  1.000000000000e-01  0.000000000000e+00
  8.000000000000e-01  1.500000000000e-01  8.333330000000e-03
  8.500000000000e-01  1.000000000000e-01  8.333330000000e-03
  8.500000000000e-01  1.500000000000e-01  0.000000000000e+00
  8.250000000000e-01  1.250000000000e-01  4.166670000000e-03
  8.250000000000e-01  1.750000000000e-01  1.250000000000e-02
  8.750000000000e-01  1.250000000000e-01  1.250000000000e-02
  8.750000000000e-01  1.750000000000e-01  4.166670000000e-03
  9.000000000000e-01  1.000000000000e-01  0.000000000000e+00
  9.000000000000e-01  1.500000000000e-01  8.333330000000e-03
  9.500000000000e-01  1.000000000000e-01  8.333330000000e-03
  9.500000000000e-01  1.500000000000e-01  0.000000000000e+00
  9.250000000000e-01  1.250000000000e-01  4.166670000000e-03
  9.250000000000e-01  1.750000000000e-01  1.250000000000e-02
  9.750000000000e-01  1.250000000000e-01  1.250000000000e-02
  9.750000000000e-01  1.750000000000e-01  4.166670000000e-03
  0.000000000000e+00  2.000000000000e-01  0.000000000000e+00
  0.000000000000e+00  2.500000000000e-01  8.333330000000e-03
  5.000000000000e-02  2.000000000000e-01  8.333330000000e-03
  5.000000000000e-02  2.500000000000e-01  0.000000000000e+00
  2.500000000000e-02  2.250000000000e-01  4.166670000000e-03
  2.500000000000e-02  2.750000000000e-01  1.250000000000e-02
  7.500000000000e-02  2.250000000000e-01  1.250000000000e-02
  7.500000000000e-02  2.750000000000e-01  4.166670000000e-03
  1.000000000000e-01  2.000000000000e-01  0.000000000000e+00
  1.000000000000e-01  2.500000000000e-01  8.333330000000e-03
  1.500000000000e-01  2.000000000000e-01  8.333330000000e-03
  1.500000000000e-01  2.500000000000e-01  0.000000000000e+00
  1.250000000000e-01  2.250000000000e-01  4.166670000000e-03
  1.250000000000e-01  2.750000000000e-01  1.250000000000e-02
  1.750000000000e-01  2.250000000000e-01  1.250000000000e-02
  1.750000000000e-01  2.750000000000e-01  4.166670000000e-03
  2.000000000000e-01  2.000000000000e-01  0.000000000000e+00
  2.000000000000e-01  2.500000000000e-01  8.333330000000e-03
  2.500000000000e-01  2.000000000000e-01  8.333330000000e-03
  2.500000000000e-01  2.500000000000e-01  0.000000000000e+00
  2.250000000000e-01  2.250000000000e-01  4.166670000000e-03
  2.250000000000e-01  2.750000000000e-01  1.250000000000e-02
  2.750000000000e-01  2.250000000000e-01  1.250000000000e-02
  2.750000000000e-01  2.750000000000e-01  4.166670000000e-03
  3.000000000000e-01  2.000000000000e-01  0.000000000000e+00
  3.000000000000e-01  2.500000000000e-01  8.333330000000e-03
  3.500000000000e-01  2.000000000000e-01  8.333330000000e-03
  3.500000000000e-01  2.500000000000e-01  0.000000000000e+00
  3.250000000000e-01  2.250000000000e-01  4.166670000000e-03
  3.250000000000e-01  2.750000000000e-01  1.250000000000e-02
  3.750000000000e-01  2.250000000000e-01  1.250000000000e-02
  3.750000000000e-01  2.750000000000e-01  4.166670000000e-03
  4.000000000000e-01  2.000000000000e-01  0.000000000000e+00
  4.000000000000e-01  2.500000000000e-01  8.333330000000e-03
  4.500000000000e-01  2.000000000000e-01  8.333330000000e-03
  4.500000000000e-01  2.500000000000e-01  0.000000000000e+00
  4.250000000000e-01  2.250000000000e-01  4.166670000000e-03
  4.250000000000e-01  2.750000000000e-01  1.250000000000e-02
  4.750000000000e-01  2.250000000000e-01  1.250000000000e-02
  4.750000000000e-01  2.750000000000e-01  4.166670000000e-03
  5.000000000000e-01  2.000000000000e-01  0.000000000000e+00
  5.000000000000e-01  2.500000000000e-01  8.333330000000e-03
  5.500000000000e-01  2.000000000000e-01  8.333330000000e-03
  5.500000000000e-01  2.500000000000e-01  0.000000000000e+00
  5.250000000000e-01  2.250000000000e-01  4.166670000000e-03
  5.250000000000e-01  2.750000000000e-01  1.250000000000e-02
  5.750000000000e-01  2.250000000000e-01  1.250000000000e-02
  5.750000000000e-01  2.750000000000e-01  4.166670000000e-03
  6.000000000000e-01  2.000000000000e-01  0.000000000000e+00
  6.000000000000e-01  2.500000000000e-01  8.333330000000e-03
  6.500000000000e-01  2.000000000000e-01  8.333330000000e-03
  6.500000000000e-01  2.500000000000e-01  0.000000000000e+00
  6.250000000000e-01  2.250000000000e-01  4.166670000000e-03
  6.250000000000e-01  2.750000000000e-01  1.250000000000e-02
  6.750000000000e-01  2.250000000000e-01  1.250000000000e-02
  6.750000000000e-01  2.750000000000e-01  4.166670000000e-03
  7.000000000000e-01  2.000000000000e-01  0.000000000000e+00
  7.000000000000e-01  2.500000000000e-01  8.333330000000e-03
  7.500000000000e-01  2.000000000000e-01  8.333330000000e-03
  7.500000000000e-01  2.500000000000e-01  0.000000000000e+00
  7.250000000000e-01  2.250000000000e-01  4.166670000000e-03
  7.250000000000e-01  2.750000000000e-01  1.250000000000e-02
  7.750000000000e-01  2.250000000000e-01  1.250000000000e-02
  7.750000000000e-01  2.750000000000e-01  4.166670000000e-03
  8.000000000000e-01  2.000000000000e-01  0.000000000000e+00
  8.000000000000e-01  2.500000000000e-01  8.333330000000e-03
  8.500000000000e-01  2.000000000000e-01  8.333330000000e-03
  8.500000000000e-01  2.500000000000e-01  0.000000000000e+00
  8.250000000000e-01  2.250000000000e-01  4.166670000000e-03
  8.250000000000e-01  2.750000000000e-01  1.250000000000e-02
  8.750000000000e-01  2.250000000000e-01  1.250000000000e-02
  8.750000000000e-01  2.750000000000e-01  4.166670000000e-03
  9.000000000000e-01  2.000000000000e-01  0.000000000000e+00
  9.000000000000e-01  2.500000000000e-01  8.333330000000e-03
  9.500000000000e-01  2.000000000000e-01  8.333330000000e-03
  9.500000000000e-01  2.500000000000e-01  0.000000000000e+00
  9.250000000000e-01  2.250000000000e-01  4.166670000000e-03
  9.250000000000e-01  2.750000000000e-01  1.250000000000e-02
  9.750000000000e-01  2.250000000000e-01  1.250000000000e-02
  9.750000000000e-01  2.750000000000e-01  4.166670000000e-03
  0.000000000000e+00  3.000000000000e-01  0.000000000000e+00
  0.000000000000e+00  3.500000000000e-01  8.333330000000e-03
  5.000000000000e-02  3.000000000000e-01  8.333330000000e-03
  5.000000000000e-02  3.500000000000e-01  0.000000000000e+00
  2.500000000000e-02  3.250000000000e-01  4.166670000000e-03
  2.500000000000e-02  3.750000000000e-01  1.250000000000e-02
  7.500000000000e-02  3.250000000000e-01  1.250000000000e-02
  7.500000000000e-02  3.750000000000e-01  4.166670000000e-03
  1.000000000000e-01  3.000000000000e-01  0.000000000000e+00
  1.000000000000e-01  3.500000000000e-01  8.333330000000e-03
  1.500000000000e-01  3.000000000000e-01  8.333330000000e-03
  1.500000000000e-01  3.500000000000e-01  0.000000000000e+00
  1.250000000000e-01  3.250000000000e-01  4.166670000000e-03
  1.250000000000e-01  3.750000000000e-01  1.250000000000e-02
  1.750000000000e-01  3.250000000000e-01  1.250000000000e-02
  1.750000000000e-01  3.750000000000e-01  4.166670000000e-03
  2.000000000000e-01  3.000000000000e-01  0.000000000000e+00
  2.000000000000e-01  3.500000000000e-01  8.333330000000e-03
  2.500000000000e-01  3.000000000000e-01  8.333330000000e-03
  2.500000000000e-01  3.500000000000e-01  0.000000000000e+00
  2.250000000000e-01  3.250000000000e-01  4.166670000000e-03
  2.250000000000e-01  3.750000000000e-01  1.250000000000e-02
  2.750000000000e-01  3.250000000000e-01  1.250000000000e-02
  2.750000000000e-01  3.750000000000e-01  4.166670000000e-03
  3.000000000000e-01  3.000000000000e-01  0.000000000000e+00
  3.000000000000e-01  3.500000000000e-01  8.333330000000e-03
  3.500000000000e-01  3.000000000000e-01  8.333330000000e-03
  3.500000000000e-01  3.500000000000e-01  0.000000000000e+00
  3.250000000000e-01  3.250000000000e-01  4.166670000000e-03
  3.250000000000e-01  3.750000000000e-01  1.250000000000e-02
  3.750000000000e-01  3.250000000000e-01  1.250000000000e-02
  3.750000000000e-01  3.750000000000e-01  4.166670000000e-03
  4.000000000000e-01  3.000000000000e-01  0.000000000000e+00
  4.000000000000e-01  3.500000000000e-01  8.333330000000e-03
  4.500000000000e-01  3.000000000000e-01  8.333330000000e-03
  4.500000000000e-01  3.500000000000e-01  0.000000000000e+00
  4.250000000000e-01  3.250000000000e-01  4.166670000000e-03
  4.250000000000e-01  3.750000000000e-01  1.250000000000e-02
  4.750000000000e-01  3.250000000000e-01  1.250000000000e-02
  4.750000000000e-01  3.750000000000e-01  4.166670000000e-03
  5.000000000000e-01  3.000000000000e-01  0.000000000000e+00
  5.000000000000e-01  3.500000000000e-01  8.333330000000e-03
  5.500000000000e-01  3.000000000000e-01  8.333330000000e-03
  5.500000000000e-01  3.500000000000e-01  0.000000000000e+00
  5.250000000000e-01  3.250000000000e-01  4.166670000000e-03
  5.250000000000e-01  3.750000000000e-01  1.250000000000e-02
  5.750000000000e-01  3.250000000000e-01  1.250000000000e-02
  5.750000000000e-01  3.750000000000e-01  4.166670000000e-03
  6.000000000000e-01  3.000000000000e-01  0.000000000000e+00
  6.000000000000e-01  3.500000000000e-01  8.333330000000e-03
  6.500000000000e-01  3.000000000000e-01  8.333330000000e-03
  6.500000000000e-01  3.500000000000e-01  0.000000000000e+00
  6.250000000000e-01  3.250000000000e-01  4.166670000000e-03
  6.250000000000e-01  3.750000000000e-01  1.250000000000e-02
  6.750000000000e-01  3.250000000000e-01  1.250000000000e-02
  6.750000000000e-01  3.750000000000e-01  4.166670000000e-03
  7.000000000000e-01  3.000000000000e-01  0.000000000000e+00
  7.000000000000e-01  3.500000000000e-01  8.333330000000e-03
  7.500000000000e-01  3.000000000000e-01  8.333330000000e-03
  7.500000000000e-01  3.500000000000e-01  0.000000000000e+00
  7.250000000000e-01  3.250000000000e-01  4.166670000000e-03
  7.250000000000e-01  3.750000000000e-01  1.250000000000e-02
  7.750000000000e-01  3.250000000000e-01  1.250000000000e-02
  7.750000000000e-01  3.750000000000e-01  4.166670000000e-03
  8.000000000000e-01  3.000000000000e-01  0.000000000000e+00
  8.000000000000e-01  3.500000000000e-01  8.333330000000e-03
  8.500000000000e-01  3.000000000000e-01  8.333330000000e-03
  8.500000000000e-01  3.500000000000e-01  0.000000000000e+00
  8.250000000000e-01  3.250000000000e-01  4.166670000000e-03
  8.250000000000e-01  3.750000000000e-01  1.250000000000e-02
  8.750000000000e-01  3.250000000000e-01  1.250000000000e-02
  8.750000000000e-01  3.750000000000e-01  4.166670000000e-03
  9.000000000000e-01  3.000000000000e-01  0.000000000000e+00
  9.000000000000e-01  3.500000000000e-01  8.333330000000e-03
  9.500000000000e-01  3.000000000000e-01  8.333330000000e-03
  9.500000000000e-01  3.500000000000e-01  0.000000000000e+00
  9.250000000000e-01  3.250000000000e-01  4.166670000000e-03
  9.250000000000e-01  3.750000000000e-01  1.250000000000e-02
  9.750000000000e-01  3.250000000000e-01  1.250000000000e-02
  9.750000000000e-01  3.750000000000e-01  4.166670000000e-03
  0.000000000000e+00  4.000000000000e-01  0.000000000000e+00
  0.000000000000e+00  4.500000000000e-01  8.333330000000e-03
  5.000000000000e-02  4.000000000000e-01  8.333330000000e-03
  5.000000000000e-02  4.500000000000e-01  0.000000000000e+00
  2.500000000000e-02  4.250000000000e-01  4.166670000000e-03
  2.500000000000e-02  4.750000000000e-01  1.250000000000e-02
  7.500000000000e-02  4.250000000000e-01  1.250000000000e-02
  7.500000000000e-02  4.750000000000e-01  4.166670000000e-03
  1.000000000000e-01  4.000000000000e-01  0.000000000000e+00
  1.000000000000e-01  4.500000000000e-01  8.333330000000e-03
  1.500000000000e-01  4.000000000000e-01  8.333330000000e-03
  1.500000000000e-01  4.500000000000e-01  0.000000000000e+00
  1.250000000000e-01  4.250000000000e-01  4.166670000000e-03
  1.250000000000e-01  4.750000000000e-01  1.250000000000e-02
  1.750000000000e-01  4.250000000000e-01  1.250000000000e-02
  1.750000000000e-01  4.750000000000e-01  4.166670000000e-03
  2.000000000000e-01  4.000000000000e-01  0.000000000000e+00
  2.000000000000e-01  4.500000000000e-01  8.333330000000e-03
  2.500000000000e-01  4.000000000000e-01  8.333330000000e-03
  2.500000000000e-01  4.500000000000e-01  0.000000000000e+00
  2.250000000000e-01  4.250000000000e-01  4.166670000000e-03
  2.250000000000e-01  4.750000000000e-01  1.250000000000e-02
  2.750000000000e-01  4.250000000000e-01  1.250000000000e-02
  2.750000000000e-01  4.750000000000e-01  4.166670000000e-03
  3.000000000000e-01  4.000000000000e-01  0.000000000000e+00
  3.000000000000e-01  4.500000000000e-01  8.333330000000e-03
  3.500000000000e-01  4.000000000000e-01  8.333330000000e-03
  3.500000000000e-01  4.500000000000e-01  0.000000000000e+00
  3.250000000000e-01  4.250000000000e-01  4.166670000000e-03
  3.250000000000e-01  4.750000000000e-01  1.250000000000e-02
  3.750000000000e-01  4.250000000000e-01  1.250000000000e-02
  3.750000000000e-01  4.750000000000e-01  4.166670000000e-03
  4.000000000000e-01  4.000000000000e-01  0.000000000000e+00
  4.000000000000e-01  4.500000000000e-01  8.333330000000e-03
  4.500000000000e-01  4.000000000000e-01  8.333330000000e-03
  4.500000000000e-01  4.500000000000e-01  0.000000000000e+00
  4.250000000000e-01  4.250000000000e-01  4.166670000000e-03
  4.250000000000e-01  4.750000000000e-01  1.250000000000e-02
  4.750000000000e-01  4.250000000000e-01  1.250000000000e-02
  4.750000000000e-01  4.750000000000e-01  4.166670000000e-03
  5.000000000000e-01  4.000000000000e-01  0.000000000000e+00
  5.000000000000e-01  4.500000000000e-01  8.333330000000e-03
  5.500000000000e-01  4.000000000000e-01  8.333330000000e-03
  5.500000000000e-01  4.500000000000e-01  0.000000000000e+00
  5.250000000000e-01  4.250000000000e-01  4.166670000000e-03
  5.250000000000e-01  4.750000000000e-01  1.250000000000e-02
  5.750000000000e-01  4.250000000000e-01  1.250000000000e-02
  5.750000000000e-01  4.750000000000e-01  4.166670000000e-03
  6.000000000000e-01  4.000000000000e-01  0.000000000000e+00
  6.000000000000e-01  4.500000000000e-01  8.333330000000e-03
  6.500000000000e-01  4.000000000000e-01  8.333330000000e-03
  6.500000000000e-01  4.500000000000e-01  0.000000000000e+00
  6.250000000000e-01  4.250000000000e-01  4.166670000000e-03
  6.250000000000e-01  4.750000000000e-01  1.250000000000e-02
  6.750000000000e-01  4.250000000000e-01  1.250000000000e-02
  6.750000000000e-01  4.750000000000e-01  4.166670000000e-03
  7.000000000000e-01  4.000000000000e-01  0.000000000000e+00
  7.000000000000e-01  4.500000000000e-01  8.333330000000e-03
  7.500000000000e-01  4.000000000000e-01  8.333330000000e-03
  7.500000000000e-01  4.500000000000e-01  0.000000000000e+00
  7.250000000000e-01  4.250000000000e-01  4.166670000000e-03
  7.250000000000e-01  4.750000000000e-01  1.250000000000e-02
  7.750000000000e-01  4.250000000000e-01  1.250000000000e-02
  7.750000000000e-01  4.750000000000e-01  4.166670000000e-03
  8.000000000000e-01  4.000000000000e-01  0.000000000000e+00
  8.000000000000e-01  4.500000000000e-01  8.333330000000e-03
  8.500000000000e-01  4.000000000000e-01  8.333330000000e-03
  8.500000000000e-01  4.500000000000e-01  0.000000000000e+00
  8.250000000000e-01  4.250000000000e-01  4.166670000000e-03
  8.250000000000e-01  4.750000000000e-01  1.250000000000e-02
  8.750000000000e-01  4.250000000000e-01  1.250000000000e-02
  8.750000000000e-01  4.750000000000e-01  4.166670000000e-03
  9.000000000000e-01  4.000000000000e-01  0.000000000000e+00
  9.000000000000e-01  4.500000000000e-01  8.333330000000e-03
  9.500000000000e-01  4.000000000000e-01  8.333330000000e-03
  9.500000000000e-01  4.500000000000e-01  0.000000000000e+00
  9.250000000000e-01  4.250000000000e-01  4.166670000000e-03
  9.250000000000e-01  4.750000000000e-01  1.250000000000e-02
  9.750000000000e-01  4.250000000000e-01  1.250000000000e-02
  9.750000000000e-01  4.750000000000e-01  4.166670000000e-03
  0.000000000000e+00  5.000000000000e-01  0.000000000000e+00
  0.000000000000e+00  5.500000000000e-01  8.333330000000e-03
  5.000000000000e-02  5.000000000000e-01  8.333330000000e-03
  5.000000000000e-02  5.500000000000e-01  0.000000000000e+00
  2.500000000000e-02  5.250000000000e-01  4.166670000000e-03
  2.500000000000e-02  5.750000000000e-01  1.250000000000e-02
  7.500000000000e-02  5.250000000000e-01  1.250000000000e-02
  7.500000000000e-02  5.750000000000e-01  4.166670000000e-03
  1.000000000000e-01  5.000000000000e-01  0.000000000000e+00
  1.000000000000e-01  5.500000000000e-01  8.333330000000e-03
  1.500000000000e-01  5.000000000000e-01  8.333330000000e-03
  1.500000000000e-01  5.500000000000e-01  0.000000000000e+00
  1.250000000000e-01  5.250000000000e-01  4.166670000000e-03
  1.250000000000e-01  5.750000000000e-01  1.250000000000e-02
  1.750000000000e-01  5.250000000000e-01  1.250000000000e-02
  1.750000000000e-01  5.750000000000e-01  4.166670000000e-03
  2.000000000000e-01  5.000000000000e-01  0.000000000000e+00
  2.000000000000e-01  5.500000000000e-01  8.333330000000e-03
  2.500000000000e-01  5.000000000000e-01  8.333330000000e-03
  2.500000000000e-01  5.500000000000e-01  0.000000000000e+00
  2.250000000000e-01  5.250000000000e-01  4.166670000000e-03
  2.250000000000e-01  5.750000000000e-01  1.250000000000e-02
  2.750000000000e-01  5.250000000000e-01  1.250000000000e-02
  2.750000000000e-01  5.750000000000e-01  4.166670000000e-03
  3.000000000000e-01  5.000000000000e-01  0.000000000000e+00
  3.000000000000e-01  5.500000000000e-01  8.333330000000e-03
  3.500000000000e-01  5.000000000000e-01  8.333330000000e-03
  3.500000000000e-01  5.500000000000e-01  0.000000000000e+00
  3.250000000000e-01  5.250000000000e-01  4.166670000000e-03
  3.250000000000e-01  5.750000000000e-01  1.250000000000e-02
  3.750000000000e-01  5.250000000000e-01  1.250000000000e-02
  3.750000000000e-01  5.750000000000e-01  4.166670000000e-03
  4.000000000000e-01  5.000000000000e-01  0.000000000000e+00
  4.000000000000e-01  5.500000000000e-01  8.333330000000e-03
  4.500000000000e-01  5.000000000000e-01  8.333330000000e-03
  4.500000000000e-01  5.500000000000e-01  0.000000000000e+00
  4.250000000000e-01  5.250000000000e-01  4.166670000000e-03
  4.250000000000e-01  5.750000000000e-01  1.250000000000e-02
  4.750000000000e-01  5.250000000000e-01  1.250000000000e-02
  4.750000000000e-01  5.750000000000e-01  4.166670000000e-03
  5.000000000000e-01  5.000000000000e-01  0.000000000000e+00
  5.000000000000e-01  5.500000000000e-01  8.333330000000e-03
  5.500000000000e-01  5.000000000000e-01  8.333330000000e-03
  5.500000000000e-01  5.500000000000e-01  0.000000000000e+00
  5.250000000000e-01  5.250000000000e-01  4.166670000000e-03
  5.250000000000e-01  5.750000000000e-01  1.250000000000e-02
  5.750000000000e-01  5.250000000000e-01  1.250000000000e-02
  5.750000000000e-01  5.750000000000e-01  4.166670000000e-03
  6.000000000000e-01  5.000000000000e-01  0.000000000000e+00
  6.000000000000e-01  5.500000000000e-01  8.333330000000e-03
  6.500000000000e-01  5.000000000000e-01  8.333330000000e-03
  6.500000000000e-01  5.500000000000e-01  0.000000000000e+00
  6.250000000000e-01  5.250000000000e-01  4.166670000000e-03
  6.250000000000e-01  5.750000000000e-01  1.250000000000e-02
  6.750000000000e-01  5.250000000000e-01  1.250000000000e-02
  6.750000000000e-01  5.750000000000e-01  4.166670000000e-03
  7.000000000000e-01  5.000000000000e-01  0.000000000000e+00
  7.000000000000e-01  5.500000000000e-01  8.333330000000e-03
  7.500000000000e-01  5.000000000000e-01  8.333330000000e-03
  7.500000000000e-01  5.500000000000e-01  0.000000000000e+00
  7.250000000000e-01  5.250000000000e-01  4.166670000000e-03
  7.250000000000e-01  5.750000000000e-01  1.250000000000e-02
  7.750000000000e-01  5.250000000000e-01  1.250000000000e-02
  7.750000000000e-01  5.750000000000e-01  4.166670000000e-03
  8.000000000000e-01  5.000000000000e-01  0.000000000000e+00
  8.000000000000e-01  5.500000000000e-01  8.333330000000e-03
  8.500000000000e-01  5.000000000000e-01  8.333330000000e-03
  8.500000000000e-01  5.500000000000e-01  0.000000000000e+00
  8.250000000000e-01  5.250000000000e-01  4.166670000000e-03
  8.250000000000e-01  5.750000000000e-01  1.250000000000e-02
  8.750000000000e-01  5.250000000000e-01  1.250000000000e-02
  8.750000000000e-01  5.750000000000e-01  4.166670000000e-03
  9.000000000000e-01  5.000000000000e-01  0.000000000000e+00
  9.000000000000e-01  5.500000000000e-01  8.333330000000e-03
  9.500000000000e-01  5.000000000000e-01  8.333330000000e-03
  9.500000000000e-01  5.500000000000e-01  0.000000000000e+00
  9.250000000000e-01  5.250000000000e-01  4.166670000000e-03
  9.250000000000e-01  5.750000000000e-01  1.250000000000e-02
  9.750000000000e-01  5.250000000000e-01  1.250000000000e-02
  9.750000000000e-01  5.750000000000e-01  4.166670000000e-03
  0.000000000000e+00  6.000000000000e-01  0.000000000000e+00
  0.000000000000e+00  6.500000000000e-01  8.333330000000e-03
  5.000000000000e-02  6.000000000000e-01  8.333330000000e-03
  5.000000000000e-02  6.500000000000e-01  0.000000000000e+00
  2.500000000000e-02  6.250000000000e-01  4.166670000000e-03
  2.500000000000e-02  6.750000000000e-01  1.250000000000e-02
  7.500000000000e-02  6.250000000000e-01  1.250000000000e-02